NAME : att48.tsp
COMMENT : Optimal tour for att48.tsp
TYPE : TOUR
DIMENSION : 48
Total Length: 34936.890107555286
TOUR_SECTION
1
40
3
22
16
41
34
29
2
42
10
26
4
35
45
24
5
48
39
32
21
13
25
14
23
11
47
12
15
46
33
20
30
43
17
27
19
37
6
28
36
7
18
44
31
38
9
8
-1
EOF
